1 41 88
 2 53 83
 3 87 28
 4 42 11
 5 22 1
 6 34 36
 7 84 33
 8 81 63
 9 11 29
 10 62 27
 11 90 30
 12 84 69
 13 69 33
 14 89 72
 15 45 16
 16 28 6
 17 89 35
 18 58 88
 19 62 87
 20 88 67
 21 57 90
 22 54 0
 23 92 71
 24 63 86
 25 70 34
 26 91 35
 27 93 30
 28 39 44
 29 86 36
 30 43 13
 31 89 41
 32 85 70
 33 0 72
 34 18 39
 35 93 76
 36 90 65
 37 88 0
 38 91 36
 39 87 66
 40 45 14
 41 0 33
 42 54 89
 43 35 46
 44 91 73
 45 95 35
 46 85 71
 47 94 31
 48 88 37
 49 91 35
 50 66 34
 51 86 38
 52 92 77
 53 56 93
 54 58 91
 55 60 91
 56 61 84
 57 90 70
 58 85 67
 59 0 69
 60 94 35
 61 28 5
 62 89 37
 63 90 34
 64 94 32
 65 95 35
 66 16 32
